(set-logic QF_S)
(declare-fun var_0xINPUT_242585 () String)
(assert (and (= (len var_0xINPUT_242585) 0) (= (len var_0xINPUT_242585) 0) (not (= var_0xINPUT_242585 "Example:")) (not (= var_0xINPUT_242585 "4PH2ujcENG"))))
(check-sat var_0xINPUT_242585)